1476
0 34 126 230 282 288 442 520 663 795 872 894 985 1043 1101 
0 48 95 195 200 263 345 439 456 599 628 633 708 723 784 
0 65 200 265 282 350 436 456 550 628 651 719 850 914 1017 
0 77 107 225 345 442 521 613 616 719 794 903 1026 1101 1185 
50 65 131 178 216 265 520 584 592 663 872 896 914 947 1076 
0 48 164 278 439 441 526 651 784 850 862 898 1043 1185 1284 
178 370 441 521 608 650 694 962 990 1076 1150 1249 1308 1402 1460 
